71, 1124
1553, 4
2180, 37
2093, 21
1215, 11
1489, 17
1857, 42
1540, 37
519, 76
2340, 52
2494, 5
2233, 78
1541, 60
1104, 41
1579, 66
1370, 30
1336, 48
2284, 4
1831, 55
936, 98
698, 9
2290, 42
890, 88
757, 71
2132, 68
1719, 17
1998, 2
1701, 54
920, 94
1052, 39
1296, 29
1712, 44
960, 5
1572, 19
2094, 88
1328, 67
1563, 0
1932, 2
1240, 78
1313, 66
913, 4
1640, 1
1392, 93
867, 3
2377, 48
2130, 75
2194, 42
909, 49
671, 57
914, 90
1453, 42
2369, 26
1018, 4
1272, 4
1954, 6
1437, 80
779, 65
1495, 42
1812, 41
947, 96
969, 73
1344, 74
1421, 86
2480, 75
1781, 43
1897, 45
2252, 4
2139, 56
756, 62
860, 83
888, 90
1155, 14